%chk=JID_3859.chk
%mem=8GB
%nprocshared=4
# opt freq B3LYP/6-31G(d) empiricaldispersion=gd3bj scf=xqc

CID_131102225_JID_3859_neutraal

0 1
C          1.06190       -0.04192        0.06642
C          0.87857        0.79134        1.34491
C          1.70790        2.10678        1.23678
C          1.14616        3.14723        0.27435
O          1.87061        2.72411        2.51505
N         -0.57093        0.92265        1.53224
C         -1.12707        1.24811        2.84892
C         -1.38832        2.75480        3.02079
C         -2.10560        3.05979        4.33624
C         -1.36529        2.47329        5.53152
C         -1.13367        0.97301        5.36445
C         -0.39581        0.65628        4.06241
O         -0.38298        0.48092        6.47138
H          0.63513        0.45134       -0.81350
H          0.57849       -1.02091        0.16693
H          2.12430       -0.22341       -0.12971
H          1.29768        0.18796        2.15780
H          2.71953        1.85320        0.89589
H          0.17494        3.52518        0.60698
H          1.81183        4.01693        0.23400
H          1.04245        2.75185       -0.73952
H          2.33654        2.08681        3.08227
H         -0.97618        1.52513        0.81727
H         -2.12044        0.77726        2.83877
H         -2.00107        3.12930        2.19141
H         -0.45126        3.31758        3.00028
H         -3.12263        2.65029        4.29991
H         -2.20374        4.14441        4.45845
H         -1.92939        2.66042        6.45310
H         -0.40387        2.98680        5.66238
H         -2.09772        0.45125        5.37304
H          0.62620        1.04302        4.13948
H         -0.29940       -0.43218        3.96017
H          0.45154        0.97823        6.51257

--Link1--
%chk=JID_3859.chk
%mem=8GB
%nprocshared=4
# B3LYP/6-311++G(d,p) empiricaldispersion=gd3bj scf=xqc pop=npa geom=check

CID_131102225_JID_3859_Energie_neutraal

0 1

--Link1--
%chk=JID_3859.chk
%mem=8GB
%nprocshared=4
# B3LYP/6-311++G(d,p) empiricaldispersion=gd3bj scf=xqc pop=npa geom=check

CID_131102225_JID_3859_Energie_kation

1 2

--Link1--
%chk=JID_3859.chk
%mem=8GB
%nprocshared=4
# B3LYP/6-311++G(d,p) empiricaldispersion=gd3bj scf=xqc pop=npa geom=check

CID_131102225_JID_3859_Energie_anion

-1 2
