%chk=JID_10141.chk
%mem=8GB
%nprocshared=4
# opt freq B3LYP/6-31G(d) empiricaldispersion=gd3bj scf=xqc

CID_105275285_JID_10141_neutraal

0 1
C          0.99879       -0.08511        0.05248
C          0.77903       -0.40673       -1.42417
C          1.22378       -1.84171       -1.85562
C          0.50360       -2.91813       -0.98078
C         -1.02016       -2.89857       -1.01410
C          0.88386       -2.02356       -3.40320
C          1.56626       -1.00707       -4.36105
C          3.06197       -1.10120       -4.41964
N          3.72763       -2.20529       -4.69620
C          5.09629       -1.96973       -4.66484
C          5.43398       -0.65314       -4.39990
S          4.03025        0.29474       -4.16709
C          6.05993       -3.11862       -4.92324
C          6.81661       -2.88055       -6.24390
C          7.07919       -3.23345       -3.77168
C          5.31461       -4.46568       -5.03016
N          1.10669       -3.42407       -3.87328
N          0.17862       -3.73558       -4.94496
O          2.64683       -1.82817       -1.60754
C          3.31717       -3.07012       -1.47461
H          0.34880       -0.68170        0.69832
H          0.76414        0.96807        0.24026
H          2.03754       -0.25261        0.35239
H         -0.27291       -0.23266       -1.67714
H          1.36452        0.33738       -1.97631
H          0.82723       -3.92224       -1.28111
H          0.83373       -2.82693        0.06152
H         -1.40711       -3.07609       -2.02096
H         -1.41263       -3.69228       -0.36938
H         -1.42447       -1.95178       -0.64657
H         -0.19449       -1.82227       -3.48414
H          1.19138       -1.16903       -5.38114
H          1.24599        0.00980       -4.10847
H          6.41764       -0.21239       -4.33092
H          7.40752       -1.95785       -6.20871
H          7.50504       -3.70501       -6.46156
H          6.12175       -2.79192       -7.08738
H          6.57490       -3.38487       -2.81012
H          7.76152       -4.07678       -3.92800
H          7.69249       -2.32953       -3.68120
H          4.76364       -4.69079       -4.10947
H          4.59235       -4.46016       -5.85502
H          6.01196       -5.29228       -5.20866
H          2.08567       -3.46089       -4.21087
H          0.45520       -4.60502       -5.41216
H         -0.75199       -3.93328       -4.56470
H          3.06110       -3.54489       -0.52348
H          3.11349       -3.75021       -2.30088
H          4.39212       -2.86950       -1.45949

--Link1--
%chk=JID_10141.chk
%mem=8GB
%nprocshared=4
# B3LYP/6-311++G(d,p) empiricaldispersion=gd3bj scf=xqc pop=npa geom=check

CID_105275285_JID_10141_Energie_neutraal

0 1

--Link1--
%chk=JID_10141.chk
%mem=8GB
%nprocshared=4
# B3LYP/6-311++G(d,p) empiricaldispersion=gd3bj scf=xqc pop=npa geom=check

CID_105275285_JID_10141_Energie_kation

1 2

--Link1--
%chk=JID_10141.chk
%mem=8GB
%nprocshared=4
# B3LYP/6-311++G(d,p) empiricaldispersion=gd3bj scf=xqc pop=npa geom=check

CID_105275285_JID_10141_Energie_anion

-1 2
