%chk=JID_9801.chk
%mem=8GB
%nprocshared=4
# opt freq B3LYP/6-31G(d) empiricaldispersion=gd3bj scf=xqc

CID_43387367_JID_9801_neutraal

0 1
C          1.05384        0.08046        0.02505
C          0.37863        1.23845        0.74663
C          1.13308        2.56049        0.56864
C          0.82792        3.15581       -0.80593
O         -0.12740        3.86369       -1.09085
O          1.72462        2.80684       -1.74863
N          0.68927        3.54163        1.56527
C          1.29254        3.94253        2.71940
O          0.71815        4.77897        3.42003
C          2.64145        3.37249        3.12356
S          2.51365        1.66836        3.74878
C          1.38688        1.91938        5.16023
C          2.07357        2.50673        6.36502
C          2.82969        1.69047        7.21801
C          3.45788        2.22881        8.34053
C          3.34613        3.59053        8.61911
C          2.60329        4.42523        7.77788
C          1.96852        3.87530        6.65520
C          2.48499        5.89448        8.05615
H          1.05902        0.23378       -1.05808
H          0.51765       -0.85229        0.22724
H          2.08768       -0.04414        0.36234
H         -0.65265        1.33408        0.38396
H          0.30402        0.98316        1.80941
H          2.21338        2.42469        0.66260
H          1.40115        3.24765       -2.56327
H         -0.19538        4.00807        1.38228
H          3.32142        3.39735        2.26712
H          3.08922        4.01647        3.88673
H          0.98523        0.93585        5.43206
H          0.51614        2.51397        4.86742
H          2.93079        0.62706        7.01129
H          4.03655        1.58587        8.99844
H          3.84389        3.99478        9.49729
H          1.38533        4.52434        6.00236
H          1.43242        6.17582        8.16222
H          3.00039        6.17065        8.98192
H          2.93142        6.46886        7.23805

--Link1--
%chk=JID_9801.chk
%mem=8GB
%nprocshared=4
# B3LYP/6-311++G(d,p) empiricaldispersion=gd3bj scf=xqc pop=npa geom=check

CID_43387367_JID_9801_Energie_neutraal

0 1

--Link1--
%chk=JID_9801.chk
%mem=8GB
%nprocshared=4
# B3LYP/6-311++G(d,p) empiricaldispersion=gd3bj scf=xqc pop=npa geom=check

CID_43387367_JID_9801_Energie_kation

1 2

--Link1--
%chk=JID_9801.chk
%mem=8GB
%nprocshared=4
# B3LYP/6-311++G(d,p) empiricaldispersion=gd3bj scf=xqc pop=npa geom=check

CID_43387367_JID_9801_Energie_anion

-1 2
