%chk=JID_1089.chk
%mem=8GB
%nprocshared=4
# opt freq B3LYP/6-31G(d) empiricaldispersion=gd3bj scf=xqc

CID_150942596_JID_1089_neutraal

0 1
C          0.94202       -0.04730        0.06634
C          0.24296        0.95779        0.96731
C          0.37775        2.41346        0.50642
C         -0.01335        2.72802       -0.94642
N         -1.45938        2.81692       -1.23333
C         -1.69494        3.17213       -2.65736
C         -1.23808        2.12907       -3.68830
C         -3.16794        3.51663       -2.90329
O         -2.02268        1.49587       -0.98888
C         -3.23632        1.57022       -0.22549
C         -3.19850        2.45719        1.01024
H          0.44263       -0.13392       -0.90303
H          0.92883       -1.03881        0.53062
H          1.98649        0.23308       -0.10193
H         -0.80579        0.67037        1.06942
H          0.67428        0.88128        1.97324
H         -0.18256        3.06362        1.18882
H          1.43177        2.69872        0.62822
H          0.41957        3.71197       -1.17070
H          0.48847        2.01901       -1.61105
H         -1.13852        4.09785       -2.85517
H         -1.72919        1.16268       -3.53512
H         -1.48213        2.46473       -4.70274
H         -0.15592        1.97240       -3.66043
H         -3.54882        4.20142       -2.13775
H         -3.28274        4.01596       -3.87226
H         -3.80021        2.62424       -2.92331
H         -4.05869        1.87378       -0.87860
H         -3.45820        0.54478        0.08995
H         -3.03185        3.50634        0.74791
H         -4.14933        2.39301        1.54857
H         -2.40084        2.15831        1.69379

--Link1--
%chk=JID_1089.chk
%mem=8GB
%nprocshared=4
# B3LYP/6-311++G(d,p) empiricaldispersion=gd3bj scf=xqc pop=npa geom=check

CID_150942596_JID_1089_Energie_neutraal

0 1

--Link1--
%chk=JID_1089.chk
%mem=8GB
%nprocshared=4
# B3LYP/6-311++G(d,p) empiricaldispersion=gd3bj scf=xqc pop=npa geom=check

CID_150942596_JID_1089_Energie_kation

1 2

--Link1--
%chk=JID_1089.chk
%mem=8GB
%nprocshared=4
# B3LYP/6-311++G(d,p) empiricaldispersion=gd3bj scf=xqc pop=npa geom=check

CID_150942596_JID_1089_Energie_anion

-1 2
