%chk=JID_10592.chk
%mem=8GB
%nprocshared=4
# opt freq B3LYP/6-31G(d) empiricaldispersion=gd3bj scf=xqc

CID_118686841_JID_10592_neutraal

0 1
C          0.97411        0.09536        0.01540
C          0.28051       -0.74333        0.79235
C         -0.90556       -0.34600        1.52181
C         -1.46142       -0.96871        2.58443
C         -0.84264       -2.15499        3.22791
C         -1.60506       -3.24634        3.44841
C          0.58251       -2.18207        3.64204
C          1.11691       -1.08321        4.22172
C          2.57120       -0.98159        4.51985
O          3.04697        0.04828        4.98504
N          3.30308       -2.09739        4.19441
C          4.75677       -2.17212        4.30551
C          5.10781       -3.34505        3.38207
C          3.86027       -4.23687        3.40038
C          2.77317       -3.23988        3.64859
C          1.46988       -3.31710        3.36376
C          5.26958       -2.42156        5.72132
O          6.44942       -2.51431        6.03273
O          4.31846       -2.58152        6.66164
N         -2.61156       -0.46403        3.17020
H          0.68919        1.13484       -0.11263
H          1.86289       -0.24494       -0.50658
H          0.62649       -1.76867        0.88737
H         -1.37649        0.56851        1.16433
H         -1.21442       -4.13228        3.93852
H         -2.64524       -3.28898        3.14213
H          0.53998       -0.19315        4.44419
H          5.19307       -1.22802        3.95972
H          6.00733       -3.89326        3.67873
H          5.26578       -2.97146        2.36158
H          3.91293       -4.95029        4.22998
H          3.73843       -4.78158        2.45995
H          1.05499       -4.20134        2.89204
H          4.81556       -2.67097        7.50003
H         -3.19938        0.06728        2.53499
H         -3.12857       -1.13948        3.72391

--Link1--
%chk=JID_10592.chk
%mem=8GB
%nprocshared=4
# B3LYP/6-311++G(d,p) empiricaldispersion=gd3bj scf=xqc pop=npa geom=check

CID_118686841_JID_10592_Energie_neutraal

0 1

--Link1--
%chk=JID_10592.chk
%mem=8GB
%nprocshared=4
# B3LYP/6-311++G(d,p) empiricaldispersion=gd3bj scf=xqc pop=npa geom=check

CID_118686841_JID_10592_Energie_kation

1 2

--Link1--
%chk=JID_10592.chk
%mem=8GB
%nprocshared=4
# B3LYP/6-311++G(d,p) empiricaldispersion=gd3bj scf=xqc pop=npa geom=check

CID_118686841_JID_10592_Energie_anion

-1 2
