%chk=JID_4049.chk
%mem=8GB
%nprocshared=4
# opt freq B3LYP/6-31G(d) empiricaldispersion=gd3bj scf=xqc

CID_130564247_JID_4049_neutraal

0 1
C          1.08535       -0.04449        0.02713
S         -0.08597        1.23450        0.54699
C          0.59195        1.61385        2.19665
C          0.46570        0.49053        3.15232
N         -0.56716        0.08369        3.85292
C         -0.05962       -0.97552        4.56146
N          1.24055       -1.20593        4.32259
O          1.59221       -0.23633        3.39184
N         -0.87305       -1.66620        5.40385
C         -0.24983       -2.43836        6.49067
C         -0.09066       -1.55415        7.75136
N         -1.35878       -0.93256        8.19963
C         -1.96812       -0.19531        7.06718
C         -2.15559       -1.06488        5.80175
H          0.87750       -0.31591       -1.01143
H          0.97866       -0.94144        0.64214
H          2.11122        0.32795        0.08795
H          1.63597        1.92611        2.08959
H          0.04112        2.47558        2.58779
H         -0.89826       -3.29151        6.72859
H          0.71836       -2.86354        6.20135
H          0.64400       -0.76169        7.56316
H          0.30496       -2.16360        8.57123
H         -1.99866       -1.68112        8.46662
H         -1.34480        0.67697        6.83562
H         -2.94264        0.18825        7.38859
H         -2.61440       -0.47686        4.99850
H         -2.86397       -1.87371        6.02373

--Link1--
%chk=JID_4049.chk
%mem=8GB
%nprocshared=4
# B3LYP/6-311++G(d,p) empiricaldispersion=gd3bj scf=xqc pop=npa geom=check

CID_130564247_JID_4049_Energie_neutraal

0 1

--Link1--
%chk=JID_4049.chk
%mem=8GB
%nprocshared=4
# B3LYP/6-311++G(d,p) empiricaldispersion=gd3bj scf=xqc pop=npa geom=check

CID_130564247_JID_4049_Energie_kation

1 2

--Link1--
%chk=JID_4049.chk
%mem=8GB
%nprocshared=4
# B3LYP/6-311++G(d,p) empiricaldispersion=gd3bj scf=xqc pop=npa geom=check

CID_130564247_JID_4049_Energie_anion

-1 2
