%chk=JID_9379.chk
%mem=8GB
%nprocshared=4
# opt freq B3LYP/6-31G(d) empiricaldispersion=gd3bj scf=xqc

CID_65175592_JID_9379_neutraal

0 1
C          1.04548       -0.06475       -0.06114
C          0.86605        1.29443        0.59396
O          1.33786        2.37445       -0.20418
C          2.74170        2.41899       -0.46796
C          3.57693        2.78373        0.76166
C          4.20147        1.56914        1.45009
O          5.29231        1.07057        0.66392
C          5.12685       -0.21605        0.21196
C          4.87095       -1.29610        1.08046
C          4.64114       -2.56707        0.53996
C          4.66542       -2.77912       -0.84763
C          4.96949       -1.70817       -1.69355
C          5.23480       -0.44147       -1.16944
O          5.50115        0.52051       -2.11158
C          6.60411        1.36537       -1.78941
C          4.38754       -4.14716       -1.40848
O          5.39776       -5.05963       -1.00207
O          4.88781       -1.02675        2.42597
C          4.36391       -2.02131        3.29706
H          0.63446       -0.06028       -1.07573
H          0.54066       -0.84076        0.52177
H          2.09914       -0.33806       -0.14207
H         -0.20602        1.46671        0.73982
H          1.31785        1.32632        1.58900
H          3.06911        1.50496       -0.96634
H          2.86506        3.22281       -1.20304
H          4.39210        3.44265        0.43822
H          2.96072        3.33374        1.48155
H          4.62648        1.88648        2.40898
H          3.43561        0.81941        1.66409
H          4.44271       -3.42438        1.17838
H          5.00959       -1.85015       -2.77148
H          6.25317        2.27045       -1.28551
H          7.36993        0.85561       -1.19364
H          7.06939        1.67410       -2.73080
H          3.41676       -4.51250       -1.05763
H          4.36186       -4.13237       -2.50294
H          6.23091       -4.56083       -0.94170
H          4.32382       -1.59471        4.30395
H          3.34288       -2.30015        3.01475
H          5.01981       -2.89670        3.33197

--Link1--
%chk=JID_9379.chk
%mem=8GB
%nprocshared=4
# B3LYP/6-311++G(d,p) empiricaldispersion=gd3bj scf=xqc pop=npa geom=check

CID_65175592_JID_9379_Energie_neutraal

0 1

--Link1--
%chk=JID_9379.chk
%mem=8GB
%nprocshared=4
# B3LYP/6-311++G(d,p) empiricaldispersion=gd3bj scf=xqc pop=npa geom=check

CID_65175592_JID_9379_Energie_kation

1 2

--Link1--
%chk=JID_9379.chk
%mem=8GB
%nprocshared=4
# B3LYP/6-311++G(d,p) empiricaldispersion=gd3bj scf=xqc pop=npa geom=check

CID_65175592_JID_9379_Energie_anion

-1 2
