%chk=JID_5514.chk
%mem=8GB
%nprocshared=4
# opt freq B3LYP/6-31G(d) empiricaldispersion=gd3bj scf=xqc

CID_130016720_JID_5514_neutraal

0 1
C          0.99499       -0.07512       -0.06581
O          1.48888        0.08173        1.26546
C          1.50711       -1.13279        1.90502
C          2.73351       -1.77171        2.11470
C          2.72931       -3.02800        2.73044
C          1.56682       -3.60466        3.23479
C          0.35906       -2.91414        3.08321
C          0.32999       -1.66970        2.41596
C         -0.75695       -3.55774        3.62306
N         -0.71397       -4.74998        4.24468
C          0.49696       -5.30856        4.32043
N          1.64025       -4.79502        3.84500
O         -1.97885       -2.91672        3.49546
C         -3.06354       -3.63932        4.06885
N          3.90877       -1.28075        1.51653
H          1.12239        0.88016       -0.58381
H         -0.07293       -0.31791       -0.06333
H          1.55916       -0.83663       -0.61623
H          3.66091       -3.58023        2.82858
H         -0.60619       -1.13098        2.29701
H          0.56365       -6.27186        4.81479
H         -3.97310       -3.05030        3.91631
H         -3.20512       -4.60432        3.57002
H         -2.92830       -3.76855        5.14822
H          4.75665       -1.54221        2.00938
H          3.84356       -0.27538        1.36055

--Link1--
%chk=JID_5514.chk
%mem=8GB
%nprocshared=4
# B3LYP/6-311++G(d,p) empiricaldispersion=gd3bj scf=xqc pop=npa geom=check

CID_130016720_JID_5514_Energie_neutraal

0 1

--Link1--
%chk=JID_5514.chk
%mem=8GB
%nprocshared=4
# B3LYP/6-311++G(d,p) empiricaldispersion=gd3bj scf=xqc pop=npa geom=check

CID_130016720_JID_5514_Energie_kation

1 2

--Link1--
%chk=JID_5514.chk
%mem=8GB
%nprocshared=4
# B3LYP/6-311++G(d,p) empiricaldispersion=gd3bj scf=xqc pop=npa geom=check

CID_130016720_JID_5514_Energie_anion

-1 2
