%chk=JID_6354.chk
%mem=8GB
%nprocshared=4
# opt freq B3LYP/6-31G(d) empiricaldispersion=gd3bj scf=xqc

CID_103497691_JID_6354_neutraal

0 1
C          0.94227       -0.05708       -0.05840
C          0.91922       -0.61676       -1.47306
C          1.62739       -1.96913       -1.60844
N          0.93093       -3.06817       -0.91800
C         -0.22305       -3.65909       -1.62112
C          0.17192       -4.43147       -2.88641
O          1.16934       -5.40325       -2.59032
C          1.36248       -3.38167        0.36690
O          2.39291       -2.86974        0.82307
C          0.60041       -4.35181        1.27826
C         -0.81812       -3.85750        1.58626
C          0.70365       -5.82634        0.84978
C          2.15595       -6.29437        0.70686
C         -0.02929       -6.70557        1.83739
O         -1.16504       -7.13078        1.69731
O          0.64753       -6.93975        2.97524
H          0.36650       -0.68334        0.62878
H          0.49939        0.94401       -0.04391
H          1.96728        0.02219        0.31702
H         -0.11910       -0.68982       -1.81431
H          1.41913        0.10105       -2.13444
H          1.71574       -2.22426       -2.66861
H          2.65536       -1.87795       -1.23989
H         -0.74781       -4.35089       -0.97132
H         -0.92674       -2.85860       -1.87012
H         -0.70014       -4.95111       -3.29540
H          0.55798       -3.77055       -3.66743
H          1.90466       -4.91966       -2.16953
H          1.12575       -4.27243        2.24414
H         -1.56741       -4.24769        0.89337
H         -1.12199       -4.18239        2.58808
H         -0.87413       -2.76411        1.56760
H          0.22138       -5.99736       -0.11653
H          2.73368       -6.10193        1.61772
H          2.19941       -7.37138        0.51011
H          2.65840       -5.78473       -0.12056
H          0.03758       -7.48727        3.51283

--Link1--
%chk=JID_6354.chk
%mem=8GB
%nprocshared=4
# B3LYP/6-311++G(d,p) empiricaldispersion=gd3bj scf=xqc pop=npa geom=check

CID_103497691_JID_6354_Energie_neutraal

0 1

--Link1--
%chk=JID_6354.chk
%mem=8GB
%nprocshared=4
# B3LYP/6-311++G(d,p) empiricaldispersion=gd3bj scf=xqc pop=npa geom=check

CID_103497691_JID_6354_Energie_kation

1 2

--Link1--
%chk=JID_6354.chk
%mem=8GB
%nprocshared=4
# B3LYP/6-311++G(d,p) empiricaldispersion=gd3bj scf=xqc pop=npa geom=check

CID_103497691_JID_6354_Energie_anion

-1 2
