%chk=JID_9057.chk
%mem=8GB
%nprocshared=4
# opt freq B3LYP/6-31G(d) empiricaldispersion=gd3bj scf=xqc

CID_79457594_JID_9057_neutraal

0 1
C          0.96218       -0.09202       -0.01013
O          0.25871        0.75187       -0.91630
C          0.87910        1.91309       -1.28772
C          0.08130        2.80431       -2.00887
C          0.58826        4.03523       -2.43680
C          1.91675        4.38511       -2.16768
C          2.71270        3.48757       -1.44149
C          2.20039        2.25840       -1.01008
C          2.47477        5.72526       -2.58198
C          2.21158        6.11404       -4.02541
O          1.33065        6.92049       -4.32720
N          2.99184        5.59860       -5.02018
C          3.86807        4.43778       -4.97097
C          3.13896        3.13036       -5.30785
O          2.90940        3.01356       -6.71588
C          1.60577        3.39857       -7.12982
C          0.41123        2.55599       -6.68657
O         -0.76088        2.89120       -6.76609
O          0.73735        1.34088       -6.20518
H          0.30111       -0.92313        0.25362
H          1.21517        0.43991        0.91311
H          1.85562       -0.51331       -0.48221
H         -0.95296        2.54672       -2.22554
H         -0.06857        4.71766       -2.97488
H          3.74225        3.74020       -1.19519
H          2.85825        1.59769       -0.45548
H          2.03215        6.49642       -1.93855
H          3.55539        5.77691       -2.40418
H          2.74622        5.95251       -5.93727
H          4.66388        4.62302       -5.69986
H          4.31756        4.36701       -3.97800
H          3.79520        2.29596       -5.03832
H          2.21306        3.01742       -4.73801
H          1.41532        4.43291       -6.83134
H          1.60942        3.36680       -8.22481
H         -0.12343        0.93642       -5.97017

--Link1--
%chk=JID_9057.chk
%mem=8GB
%nprocshared=4
# B3LYP/6-311++G(d,p) empiricaldispersion=gd3bj scf=xqc pop=npa geom=check

CID_79457594_JID_9057_Energie_neutraal

0 1

--Link1--
%chk=JID_9057.chk
%mem=8GB
%nprocshared=4
# B3LYP/6-311++G(d,p) empiricaldispersion=gd3bj scf=xqc pop=npa geom=check

CID_79457594_JID_9057_Energie_kation

1 2

--Link1--
%chk=JID_9057.chk
%mem=8GB
%nprocshared=4
# B3LYP/6-311++G(d,p) empiricaldispersion=gd3bj scf=xqc pop=npa geom=check

CID_79457594_JID_9057_Energie_anion

-1 2
