%chk=JID_7335.chk
%mem=8GB
%nprocshared=4
# opt freq B3LYP/6-31G(d) empiricaldispersion=gd3bj scf=xqc

CID_64384276_JID_7335_neutraal

0 1
C          0.94321        0.05901        0.05739
C          0.34899       -1.27626       -0.43367
C          1.34255       -2.41755       -0.17630
C          0.73228       -3.24738        0.94620
C         -0.35972       -2.37392        1.52891
N         -0.84258       -1.56299        0.41059
C         -0.04804       -1.11969       -1.93399
O          0.20139       -0.08869       -2.57025
N         -0.68260       -2.10232       -2.63720
C         -0.90831       -3.50370       -2.33176
C         -2.23970       -4.06911       -2.88752
C         -2.23978       -4.01908       -4.43184
C         -2.32455       -5.55285       -2.47980
C         -3.46917       -3.25495       -2.37811
N         -3.56031       -3.09752       -0.91119
C         -4.11299       -1.77034       -0.58709
C         -4.43268       -4.11139       -0.30629
H          1.24066        0.01678        1.11144
H          0.22405        0.87987       -0.05201
H          1.83470        0.32712       -0.52215
H          1.53075       -3.04206       -1.05515
H          2.31792       -2.03437        0.14799
H          1.47812       -3.52532        1.69769
H          0.31019       -4.17551        0.54546
H          0.04306       -1.72255        2.31255
H         -1.16615       -2.96588        1.97251
H         -1.51743       -2.11394       -0.12980
H         -0.78988       -1.81937       -3.60355
H         -0.06043       -4.04716       -2.76671
H         -0.85986       -3.66995       -1.25900
H         -1.36543       -4.53403       -4.84570
H         -3.13459       -4.50421       -4.83879
H         -2.22844       -2.99047       -4.80717
H         -2.17148       -5.68858       -1.40461
H         -3.29523       -5.98378       -2.74841
H         -1.55038       -6.14346       -2.98399
H         -3.40026       -2.26069       -2.84246
H         -4.39780       -3.68505       -2.77908
H         -5.12038       -1.63206       -0.99693
H         -4.15629       -1.62710        0.49853
H         -3.46987       -0.97514       -0.98066
H         -5.46146       -4.04869       -0.68037
H         -4.07004       -5.12507       -0.48696
H         -4.45784       -3.98751        0.78262

--Link1--
%chk=JID_7335.chk
%mem=8GB
%nprocshared=4
# B3LYP/6-311++G(d,p) empiricaldispersion=gd3bj scf=xqc pop=npa geom=check

CID_64384276_JID_7335_Energie_neutraal

0 1

--Link1--
%chk=JID_7335.chk
%mem=8GB
%nprocshared=4
# B3LYP/6-311++G(d,p) empiricaldispersion=gd3bj scf=xqc pop=npa geom=check

CID_64384276_JID_7335_Energie_kation

1 2

--Link1--
%chk=JID_7335.chk
%mem=8GB
%nprocshared=4
# B3LYP/6-311++G(d,p) empiricaldispersion=gd3bj scf=xqc pop=npa geom=check

CID_64384276_JID_7335_Energie_anion

-1 2
