%chk=JID_10418.chk
%mem=8GB
%nprocshared=4
# opt freq B3LYP/6-31G(d) empiricaldispersion=gd3bj scf=xqc

CID_114550167_JID_10418_neutraal

0 1
C          1.69800        0.03400       -0.78800
C          0.53500       -0.33082        0.13389
C         -0.52228       -1.18743       -0.58887
C         -1.80345       -0.35054       -0.62676
C         -1.31425        1.08172       -0.45202
C         -0.21524        0.92026        0.59256
N         -2.34608        1.99229       -0.01276
C         -3.00405        2.95902       -0.70710
O         -3.93269        3.54606       -0.15092
C         -2.58762        3.32044       -2.12272
C         -1.52324        4.43778       -2.25525
C         -1.81927        5.64677       -1.33031
C         -0.77678        6.76201       -1.53363
C         -0.81621        7.23418       -2.99493
C         -0.49488        6.06142       -3.93456
C         -1.53247        4.94633       -3.72547
C          0.90329        5.51560       -3.60911
C          0.95066        5.03804       -2.15010
C          0.62459        6.21404       -1.21686
C         -0.09448        3.92874       -1.94228
H          2.22162       -0.86911       -1.11893
H          1.36020        0.57235       -1.67967
H          2.42167        0.66792       -0.26487
H          0.93800       -0.86851        0.99987
H         -0.20469       -1.44695       -1.60523
H         -0.69948       -2.12779       -0.05541
H         -2.46435       -0.64321        0.19895
H         -2.36107       -0.49032       -1.55826
H         -0.88629        1.41900       -1.39679
H         -0.65147        0.74630        1.58518
H          0.42340        1.80575        0.67093
H         -2.74654        1.84466        0.90697
H         -2.28160        2.42039       -2.66687
H         -3.51290        3.64305       -2.62126
H         -2.82412        6.03944       -1.53109
H         -1.80183        5.33856       -0.27751
H         -1.00218        7.60210       -0.86727
H         -0.09230        8.04437       -3.14613
H         -1.80625        7.64363       -3.22976
H         -0.52492        6.40343       -4.97510
H         -1.32298        4.11581       -4.41226
H         -2.52879        5.32622       -3.98719
H          1.14902        4.68643       -4.28405
H          1.65805        6.29429       -3.77379
H          1.94970        4.65000       -1.92143
H          1.37389        7.00603       -1.33713
H          0.67273        5.88676       -0.17092
H         -0.03419        3.58421       -0.90478
H          0.15436        3.07596       -2.58626

--Link1--
%chk=JID_10418.chk
%mem=8GB
%nprocshared=4
# B3LYP/6-311++G(d,p) empiricaldispersion=gd3bj scf=xqc pop=npa geom=check

CID_114550167_JID_10418_Energie_neutraal

0 1

--Link1--
%chk=JID_10418.chk
%mem=8GB
%nprocshared=4
# B3LYP/6-311++G(d,p) empiricaldispersion=gd3bj scf=xqc pop=npa geom=check

CID_114550167_JID_10418_Energie_kation

1 2

--Link1--
%chk=JID_10418.chk
%mem=8GB
%nprocshared=4
# B3LYP/6-311++G(d,p) empiricaldispersion=gd3bj scf=xqc pop=npa geom=check

CID_114550167_JID_10418_Energie_anion

-1 2
