%chk=JID_8391.chk
%mem=8GB
%nprocshared=4
# opt freq B3LYP/6-31G(d) empiricaldispersion=gd3bj scf=xqc

CID_43153993_JID_8391_neutraal

0 1
C          1.85400        1.50000       -0.02200
C          0.61318        0.64762        0.01639
C          0.66770       -0.75928       -0.13849
C         -0.53077       -1.50811       -0.04617
C         -1.75588       -0.84514        0.13057
C         -1.80547        0.54069        0.24215
C         -0.62839        1.28051        0.18950
C         -0.55611       -2.97015       -0.14091
C         -0.94559       -3.75628       -1.20250
C         -0.83760       -5.14605       -0.90660
C         -0.37180       -5.40374        0.37435
S         -0.10398       -3.91781        1.20629
C         -0.15314       -6.69209        0.95461
C          0.42377       -6.89643        2.14889
C          0.64791       -8.23272        2.71574
O          1.17840       -8.44225        3.79189
O          0.21534       -9.23848        1.94046
C          1.99603       -1.44948       -0.33888
H          2.61225        1.10747        0.66318
H          2.25766        1.53369       -1.03872
H          1.64384        2.52882        0.28987
H         -2.68113       -1.41444        0.19223
H         -2.75925        1.04232        0.38114
H         -0.68397        2.36260        0.29080
H         -1.28452       -3.35430       -2.14971
H         -1.08772       -5.92924       -1.61279
H         -0.47216       -7.54779        0.36261
H          0.77544       -6.09302        2.78512
H          0.43801      -10.04037        2.45783
H          2.43989       -1.69321        0.63127
H          1.89562       -2.36642       -0.92748
H          2.69538       -0.82113       -0.89880

--Link1--
%chk=JID_8391.chk
%mem=8GB
%nprocshared=4
# B3LYP/6-311++G(d,p) empiricaldispersion=gd3bj scf=xqc pop=npa geom=check

CID_43153993_JID_8391_Energie_neutraal

0 1

--Link1--
%chk=JID_8391.chk
%mem=8GB
%nprocshared=4
# B3LYP/6-311++G(d,p) empiricaldispersion=gd3bj scf=xqc pop=npa geom=check

CID_43153993_JID_8391_Energie_kation

1 2

--Link1--
%chk=JID_8391.chk
%mem=8GB
%nprocshared=4
# B3LYP/6-311++G(d,p) empiricaldispersion=gd3bj scf=xqc pop=npa geom=check

CID_43153993_JID_8391_Energie_anion

-1 2
